\* n-period-cost-min *\
Minimize
OBJ: 1.04761904762 L_1 + 1.22782650708 L_10 + 1.08843537415 L_2
 + 1.12298887809 L_3 + 1.15178346471 L_4 + 1.1752892497 L_5
 + 1.19394463462 L_6 + 1.20815826122 L_7 + 1.21831085165 L_8
 + 1.22475694081 L_9
Subject To
_C1: 6.48 H_1 + 5.94 H_2 + 5.355 H_3 + 4.725 H_4 + 4.05 H_5 + 3.33 H_6
 + 2.565 H_7 + 1.755 H_8 + 0.9 H_9 - 6.48 L_1 - 5.94 L_2 - 5.355 L_3
 - 4.725 L_4 - 4.05 L_5 - 3.33 L_6 - 2.565 L_7 - 1.755 L_8 - 0.9 L_9 <= -5170
_C10: H_1 + H_2 + H_3 + H_4 + H_5 - L_1 - L_2 - L_3 - L_4 - L_5 >= -500
_C11: H_1 + H_2 + H_3 + H_4 + H_5 - L_1 - L_2 - L_3 - L_4 - L_5 <= 500
_C12: H_1 + H_2 + H_3 + H_4 + H_5 + H_6 - L_1 - L_2 - L_3 - L_4 - L_5 - L_6
 >= -600
_C13: H_1 + H_2 + H_3 + H_4 + H_5 + H_6 - L_1 - L_2 - L_3 - L_4 - L_5 - L_6
 <= 400
_C14: H_1 + H_2 + H_3 + H_4 + H_5 + H_6 + H_7 - L_1 - L_2 - L_3 - L_4 - L_5
 - L_6 - L_7 >= -700
_C15: H_1 + H_2 + H_3 + H_4 + H_5 + H_6 + H_7 - L_1 - L_2 - L_3 - L_4 - L_5
 - L_6 - L_7 <= 300
_C16: H_1 + H_2 + H_3 + H_4 + H_5 + H_6 + H_7 + H_8 - L_1 - L_2 - L_3 - L_4
 - L_5 - L_6 - L_7 - L_8 >= -800
_C17: H_1 + H_2 + H_3 + H_4 + H_5 + H_6 + H_7 + H_8 - L_1 - L_2 - L_3 - L_4
 - L_5 - L_6 - L_7 - L_8 <= 200
_C18: H_1 + H_2 + H_3 + H_4 + H_5 + H_6 + H_7 + H_8 + H_9 - L_1 - L_2 - L_3
 - L_4 - L_5 - L_6 - L_7 - L_8 - L_9 >= -900
_C19: H_1 + H_2 + H_3 + H_4 + H_5 + H_6 + H_7 + H_8 + H_9 - L_1 - L_2 - L_3
 - L_4 - L_5 - L_6 - L_7 - L_8 - L_9 <= 100
_C2: H_1 - L_1 >= -100
_C20: H_1 + H_10 + H_2 + H_3 + H_4 + H_5 + H_6 + H_7 + H_8 + H_9 - L_1 - L_10
 - L_2 - L_3 - L_4 - L_5 - L_6 - L_7 - L_8 - L_9 >= -1000
_C21: H_1 + H_10 + H_2 + H_3 + H_4 + H_5 + H_6 + H_7 + H_8 + H_9 - L_1 - L_10
 - L_2 - L_3 - L_4 - L_5 - L_6 - L_7 - L_8 - L_9 <= 0
_C22: H_1 - L_1 >= -8990.90909091
_C23: H_1 - L_1 <= 15766.6666667
_C24: H_1 + H_2 - L_1 - L_2 >= -8133.33333333
_C25: H_1 + H_2 - L_1 - L_2 <= 13485.7142857
_C26: H_1 + H_2 + H_3 - L_1 - L_2 - L_3 >= -7392.30769231
_C27: H_1 + H_2 + H_3 - L_1 - L_2 - L_3 <= 11800
_C28: H_1 + H_2 + H_3 + H_4 - L_1 - L_2 - L_3 - L_4 >= -6742.85714286
_C29: H_1 + H_2 + H_3 + H_4 - L_1 - L_2 - L_3 - L_4 <= 10511.1111111
_C3: H_1 - L_1 <= 900
_C30: H_1 + H_2 + H_3 + H_4 + H_5 - L_1 - L_2 - L_3 - L_4 - L_5
 >= -6166.66666667
_C31: H_1 + H_2 + H_3 + H_4 + H_5 - L_1 - L_2 - L_3 - L_4 - L_5 <= 9500
_C32: H_1 + H_2 + H_3 + H_4 + H_5 + H_6 - L_1 - L_2 - L_3 - L_4 - L_5 - L_6
 >= -5650
_C33: H_1 + H_2 + H_3 + H_4 + H_5 + H_6 - L_1 - L_2 - L_3 - L_4 - L_5 - L_6
 <= 8690.90909091
_C34: H_1 + H_2 + H_3 + H_4 + H_5 + H_6 + H_7 - L_1 - L_2 - L_3 - L_4 - L_5
 - L_6 - L_7 >= -5182.35294118
_C35: H_1 + H_2 + H_3 + H_4 + H_5 + H_6 + H_7 - L_1 - L_2 - L_3 - L_4 - L_5
 - L_6 - L_7 <= 8033.33333333
_C36: H_1 + H_2 + H_3 + H_4 + H_5 + H_6 + H_7 + H_8 - L_1 - L_2 - L_3 - L_4
 - L_5 - L_6 - L_7 - L_8 >= -4755.55555556
_C37: H_1 + H_2 + H_3 + H_4 + H_5 + H_6 + H_7 + H_8 - L_1 - L_2 - L_3 - L_4
 - L_5 - L_6 - L_7 - L_8 <= 7492.30769231
_C38: H_1 + H_2 + H_3 + H_4 + H_5 + H_6 + H_7 + H_8 + H_9 - L_1 - L_2 - L_3
 - L_4 - L_5 - L_6 - L_7 - L_8 - L_9 >= -4363.15789474
_C39: H_1 + H_2 + H_3 + H_4 + H_5 + H_6 + H_7 + H_8 + H_9 - L_1 - L_2 - L_3
 - L_4 - L_5 - L_6 - L_7 - L_8 - L_9 <= 7042.85714286
_C4: H_1 + H_2 - L_1 - L_2 >= -200
_C40: H_1 + H_10 + H_2 + H_3 + H_4 + H_5 + H_6 + H_7 + H_8 + H_9 - L_1 - L_10
 - L_2 - L_3 - L_4 - L_5 - L_6 - L_7 - L_8 - L_9 >= -4000
_C41: H_1 + H_10 + H_2 + H_3 + H_4 + H_5 + H_6 + H_7 + H_8 + H_9 - L_1 - L_10
 - L_2 - L_3 - L_4 - L_5 - L_6 - L_7 - L_8 - L_9 <= 6666.66666667
_C42: H_1 >= 0
_C43: H_2 >= 0
_C44: H_3 >= 0
_C45: H_4 >= 0
_C46: H_5 >= 0
_C47: H_6 >= 0
_C48: H_7 >= 0
_C49: H_8 >= 0
_C5: H_1 + H_2 - L_1 - L_2 <= 800
_C50: H_9 >= 0
_C51: H_10 >= 0
_C52: L_1 >= 0
_C53: L_2 >= 0
_C54: L_3 >= 0
_C55: L_4 >= 0
_C56: L_5 >= 0
_C57: L_6 >= 0
_C58: L_7 >= 0
_C59: L_8 >= 0
_C6: H_1 + H_2 + H_3 - L_1 - L_2 - L_3 >= -300
_C60: L_9 >= 0
_C61: L_10 >= 0
_C62: H_1 <= 9090.90909091
_C63: L_1 <= 16666.6666667
_C64: H_2 <= 8333.33333333
_C65: L_2 <= 14285.7142857
_C66: H_3 <= 7692.30769231
_C67: L_3 <= 12500
_C68: H_4 <= 7142.85714286
_C69: L_4 <= 11111.1111111
_C7: H_1 + H_2 + H_3 - L_1 - L_2 - L_3 <= 700
_C70: H_5 <= 6666.66666667
_C71: L_5 <= 10000
_C72: H_6 <= 6250
_C73: L_6 <= 9090.90909091
_C74: H_7 <= 5882.35294118
_C75: L_7 <= 8333.33333333
_C76: H_8 <= 5555.55555556
_C77: L_8 <= 7692.30769231
_C78: H_9 <= 5263.15789474
_C79: L_9 <= 7142.85714286
_C8: H_1 + H_2 + H_3 + H_4 - L_1 - L_2 - L_3 - L_4 >= -400
_C80: H_10 <= 5000
_C81: L_10 <= 6666.66666667
_C9: H_1 + H_2 + H_3 + H_4 - L_1 - L_2 - L_3 - L_4 <= 600
Bounds
H_1 free
H_10 free
H_2 free
H_3 free
H_4 free
H_5 free
H_6 free
H_7 free
H_8 free
H_9 free
L_1 free
L_10 free
L_2 free
L_3 free
L_4 free
L_5 free
L_6 free
L_7 free
L_8 free
L_9 free
End
